logs/drand/feas/drand-07-075-0.lp
\ LP format - for model browsing. Use MPS format to capture full model detail.
Minimize
  p0 + p1 + p2 + p3 + p4 + p5
Subject To
 R0: x0,1_21 + x0,2_21 + x0,3_21 + x0,4_21 + x0,5_21 + x1,2_21 + x1,3_21
   + x1,4_21 + x1,5_21 + x2,3_21 + x2,4_21 + x2,5_21 + x3,4_21 + x3,5_21
   + x4,5_21 = 1
 R1: x0,1_38 + x0,2_38 + x0,3_38 + x0,4_38 + x0,5_38 + x1,2_38 + x1,3_38
   + x1,4_38 + x1,5_38 + x2,3_38 + x2,4_38 + x2,5_38 + x3,4_38 + x3,5_38
   + x4,5_38 = 1
 R2: x0,1_43 + x0,2_43 + x0,3_43 + x0,4_43 + x0,5_43 + x1,2_43 + x1,3_43
   + x1,4_43 + x1,5_43 + x2,3_43 + x2,4_43 + x2,5_43 + x3,4_43 + x3,5_43
   + x4,5_43 = 1
 R3: x0,1_48 + x0,2_48 + x0,3_48 + x0,4_48 + x0,5_48 + x1,2_48 + x1,3_48
   + x1,4_48 + x1,5_48 + x2,3_48 + x2,4_48 + x2,5_48 + x3,4_48 + x3,5_48
   + x4,5_48 = 1
 R4: x0,1_58 + x0,2_58 + x0,3_58 + x0,4_58 + x0,5_58 + x1,2_58 + x1,3_58
   + x1,4_58 + x1,5_58 + x2,3_58 + x2,4_58 + x2,5_58 + x3,4_58 + x3,5_58
   + x4,5_58 = 1
 R5: x0,1_59 + x0,2_59 + x0,3_59 + x0,4_59 + x0,5_59 + x1,2_59 + x1,3_59
   + x1,4_59 + x1,5_59 + x2,3_59 + x2,4_59 + x2,5_59 + x3,4_59 + x3,5_59
   + x4,5_59 = 1
 R6: x0,1_69 + x0,2_69 + x0,3_69 + x0,4_69 + x0,5_69 + x1,2_69 + x1,3_69
   + x1,4_69 + x1,5_69 + x2,3_69 + x2,4_69 + x2,5_69 + x3,4_69 + x3,5_69
   + x4,5_69 = 1
 R7: x0,1_21 + x0,1_38 + x0,1_43 + x0,1_48 + x0,1_58 + x0,1_59 + x0,1_69
   <= 1
 R8: x0,2_21 + x0,2_38 + x0,2_43 + x0,2_48 + x0,2_58 + x0,2_59 + x0,2_69
   <= 1
 R9: x0,3_21 + x0,3_38 + x0,3_43 + x0,3_48 + x0,3_58 + x0,3_59 + x0,3_69
   <= 1
 R10: x0,4_21 + x0,4_38 + x0,4_43 + x0,4_48 + x0,4_58 + x0,4_59 + x0,4_69
   <= 1
 R11: x0,5_21 + x0,5_38 + x0,5_43 + x0,5_48 + x0,5_58 + x0,5_59 + x0,5_69
   <= 1
 R12: x1,2_21 + x1,2_38 + x1,2_43 + x1,2_48 + x1,2_58 + x1,2_59 + x1,2_69
   <= 1
 R13: x1,3_21 + x1,3_38 + x1,3_43 + x1,3_48 + x1,3_58 + x1,3_59 + x1,3_69
   <= 1
 R14: x1,4_21 + x1,4_38 + x1,4_43 + x1,4_48 + x1,4_58 + x1,4_59 + x1,4_69
   <= 1
 R15: x1,5_21 + x1,5_38 + x1,5_43 + x1,5_48 + x1,5_58 + x1,5_59 + x1,5_69
   <= 1
 R16: x2,3_21 + x2,3_38 + x2,3_43 + x2,3_48 + x2,3_58 + x2,3_59 + x2,3_69
   <= 1
 R17: x2,4_21 + x2,4_38 + x2,4_43 + x2,4_48 + x2,4_58 + x2,4_59 + x2,4_69
   <= 1
 R18: x2,5_21 + x2,5_38 + x2,5_43 + x2,5_48 + x2,5_58 + x2,5_59 + x2,5_69
   <= 1
 R19: x3,4_21 + x3,4_38 + x3,4_43 + x3,4_48 + x3,4_58 + x3,4_59 + x3,4_69
   <= 1
 R20: x3,5_21 + x3,5_38 + x3,5_43 + x3,5_48 + x3,5_58 + x3,5_59 + x3,5_69
   <= 1
 R21: x4,5_21 + x4,5_38 + x4,5_43 + x4,5_48 + x4,5_58 + x4,5_59 + x4,5_69
   <= 1
 R22: p0 - p1 <= -1
 R23: - 21 x0,1_21 - p0 + p1 >= 0
 R24: 336 x0,1_21 - p0 + p1 <= 357
 R25: - 38 x0,1_38 - p0 + p1 >= 0
 R26: 336 x0,1_38 - p0 + p1 <= 374
 R27: - 43 x0,1_43 - p0 + p1 >= 0
 R28: 336 x0,1_43 - p0 + p1 <= 379
 R29: - 48 x0,1_48 - p0 + p1 >= 0
 R30: 336 x0,1_48 - p0 + p1 <= 384
 R31: - 58 x0,1_58 - p0 + p1 >= 0
 R32: 336 x0,1_58 - p0 + p1 <= 394
 R33: - 59 x0,1_59 - p0 + p1 >= 0
 R34: 336 x0,1_59 - p0 + p1 <= 395
 R35: - 69 x0,1_69 - p0 + p1 >= 0
 R36: 336 x0,1_69 - p0 + p1 <= 405
 R37: p0 - p2 <= -1
 R38: - 21 x0,2_21 - p0 + p2 >= 0
 R39: 336 x0,2_21 - p0 + p2 <= 357
 R40: - 38 x0,2_38 - p0 + p2 >= 0
 R41: 336 x0,2_38 - p0 + p2 <= 374
 R42: - 43 x0,2_43 - p0 + p2 >= 0
 R43: 336 x0,2_43 - p0 + p2 <= 379
 R44: - 48 x0,2_48 - p0 + p2 >= 0
 R45: 336 x0,2_48 - p0 + p2 <= 384
 R46: - 58 x0,2_58 - p0 + p2 >= 0
 R47: 336 x0,2_58 - p0 + p2 <= 394
 R48: - 59 x0,2_59 - p0 + p2 >= 0
 R49: 336 x0,2_59 - p0 + p2 <= 395
 R50: - 69 x0,2_69 - p0 + p2 >= 0
 R51: 336 x0,2_69 - p0 + p2 <= 405
 R52: p0 - p3 <= -1
 R53: - 21 x0,3_21 - p0 + p3 >= 0
 R54: 336 x0,3_21 - p0 + p3 <= 357
 R55: - 38 x0,3_38 - p0 + p3 >= 0
 R56: 336 x0,3_38 - p0 + p3 <= 374
 R57: - 43 x0,3_43 - p0 + p3 >= 0
 R58: 336 x0,3_43 - p0 + p3 <= 379
 R59: - 48 x0,3_48 - p0 + p3 >= 0
 R60: 336 x0,3_48 - p0 + p3 <= 384
 R61: - 58 x0,3_58 - p0 + p3 >= 0
 R62: 336 x0,3_58 - p0 + p3 <= 394
 R63: - 59 x0,3_59 - p0 + p3 >= 0
 R64: 336 x0,3_59 - p0 + p3 <= 395
 R65: - 69 x0,3_69 - p0 + p3 >= 0
 R66: 336 x0,3_69 - p0 + p3 <= 405
 R67: p0 - p4 <= -1
 R68: - 21 x0,4_21 - p0 + p4 >= 0
 R69: 336 x0,4_21 - p0 + p4 <= 357
 R70: - 38 x0,4_38 - p0 + p4 >= 0
 R71: 336 x0,4_38 - p0 + p4 <= 374
 R72: - 43 x0,4_43 - p0 + p4 >= 0
 R73: 336 x0,4_43 - p0 + p4 <= 379
 R74: - 48 x0,4_48 - p0 + p4 >= 0
 R75: 336 x0,4_48 - p0 + p4 <= 384
 R76: - 58 x0,4_58 - p0 + p4 >= 0
 R77: 336 x0,4_58 - p0 + p4 <= 394
 R78: - 59 x0,4_59 - p0 + p4 >= 0
 R79: 336 x0,4_59 - p0 + p4 <= 395
 R80: - 69 x0,4_69 - p0 + p4 >= 0
 R81: 336 x0,4_69 - p0 + p4 <= 405
 R82: p0 - p5 <= -1
 R83: - 21 x0,5_21 - p0 + p5 >= 0
 R84: 336 x0,5_21 - p0 + p5 <= 357
 R85: - 38 x0,5_38 - p0 + p5 >= 0
 R86: 336 x0,5_38 - p0 + p5 <= 374
 R87: - 43 x0,5_43 - p0 + p5 >= 0
 R88: 336 x0,5_43 - p0 + p5 <= 379
 R89: - 48 x0,5_48 - p0 + p5 >= 0
 R90: 336 x0,5_48 - p0 + p5 <= 384
 R91: - 58 x0,5_58 - p0 + p5 >= 0
 R92: 336 x0,5_58 - p0 + p5 <= 394
 R93: - 59 x0,5_59 - p0 + p5 >= 0
 R94: 336 x0,5_59 - p0 + p5 <= 395
 R95: - 69 x0,5_69 - p0 + p5 >= 0
 R96: 336 x0,5_69 - p0 + p5 <= 405
 R97: p1 - p2 <= -1
 R98: - 21 x1,2_21 - p1 + p2 >= 0
 R99: 336 x1,2_21 - p1 + p2 <= 357
 R100: - 38 x1,2_38 - p1 + p2 >= 0
 R101: 336 x1,2_38 - p1 + p2 <= 374
 R102: - 43 x1,2_43 - p1 + p2 >= 0
 R103: 336 x1,2_43 - p1 + p2 <= 379
 R104: - 48 x1,2_48 - p1 + p2 >= 0
 R105: 336 x1,2_48 - p1 + p2 <= 384
 R106: - 58 x1,2_58 - p1 + p2 >= 0
 R107: 336 x1,2_58 - p1 + p2 <= 394
 R108: - 59 x1,2_59 - p1 + p2 >= 0
 R109: 336 x1,2_59 - p1 + p2 <= 395
 R110: - 69 x1,2_69 - p1 + p2 >= 0
 R111: 336 x1,2_69 - p1 + p2 <= 405
 R112: p1 - p3 <= -1
 R113: - 21 x1,3_21 - p1 + p3 >= 0
 R114: 336 x1,3_21 - p1 + p3 <= 357
 R115: - 38 x1,3_38 - p1 + p3 >= 0
 R116: 336 x1,3_38 - p1 + p3 <= 374
 R117: - 43 x1,3_43 - p1 + p3 >= 0
 R118: 336 x1,3_43 - p1 + p3 <= 379
 R119: - 48 x1,3_48 - p1 + p3 >= 0
 R120: 336 x1,3_48 - p1 + p3 <= 384
 R121: - 58 x1,3_58 - p1 + p3 >= 0
 R122: 336 x1,3_58 - p1 + p3 <= 394
 R123: - 59 x1,3_59 - p1 + p3 >= 0
 R124: 336 x1,3_59 - p1 + p3 <= 395
 R125: - 69 x1,3_69 - p1 + p3 >= 0
 R126: 336 x1,3_69 - p1 + p3 <= 405
 R127: p1 - p4 <= -1
 R128: - 21 x1,4_21 - p1 + p4 >= 0
 R129: 336 x1,4_21 - p1 + p4 <= 357
 R130: - 38 x1,4_38 - p1 + p4 >= 0
 R131: 336 x1,4_38 - p1 + p4 <= 374
 R132: - 43 x1,4_43 - p1 + p4 >= 0
 R133: 336 x1,4_43 - p1 + p4 <= 379
 R134: - 48 x1,4_48 - p1 + p4 >= 0
 R135: 336 x1,4_48 - p1 + p4 <= 384
 R136: - 58 x1,4_58 - p1 + p4 >= 0
 R137: 336 x1,4_58 - p1 + p4 <= 394
 R138: - 59 x1,4_59 - p1 + p4 >= 0
 R139: 336 x1,4_59 - p1 + p4 <= 395
 R140: - 69 x1,4_69 - p1 + p4 >= 0
 R141: 336 x1,4_69 - p1 + p4 <= 405
 R142: p1 - p5 <= -1
 R143: - 21 x1,5_21 - p1 + p5 >= 0
 R144: 336 x1,5_21 - p1 + p5 <= 357
 R145: - 38 x1,5_38 - p1 + p5 >= 0
 R146: 336 x1,5_38 - p1 + p5 <= 374
 R147: - 43 x1,5_43 - p1 + p5 >= 0
 R148: 336 x1,5_43 - p1 + p5 <= 379
 R149: - 48 x1,5_48 - p1 + p5 >= 0
 R150: 336 x1,5_48 - p1 + p5 <= 384
 R151: - 58 x1,5_58 - p1 + p5 >= 0
 R152: 336 x1,5_58 - p1 + p5 <= 394
 R153: - 59 x1,5_59 - p1 + p5 >= 0
 R154: 336 x1,5_59 - p1 + p5 <= 395
 R155: - 69 x1,5_69 - p1 + p5 >= 0
 R156: 336 x1,5_69 - p1 + p5 <= 405
 R157: p2 - p3 <= -1
 R158: - 21 x2,3_21 - p2 + p3 >= 0
 R159: 336 x2,3_21 - p2 + p3 <= 357
 R160: - 38 x2,3_38 - p2 + p3 >= 0
 R161: 336 x2,3_38 - p2 + p3 <= 374
 R162: - 43 x2,3_43 - p2 + p3 >= 0
 R163: 336 x2,3_43 - p2 + p3 <= 379
 R164: - 48 x2,3_48 - p2 + p3 >= 0
 R165: 336 x2,3_48 - p2 + p3 <= 384
 R166: - 58 x2,3_58 - p2 + p3 >= 0
 R167: 336 x2,3_58 - p2 + p3 <= 394
 R168: - 59 x2,3_59 - p2 + p3 >= 0
 R169: 336 x2,3_59 - p2 + p3 <= 395
 R170: - 69 x2,3_69 - p2 + p3 >= 0
 R171: 336 x2,3_69 - p2 + p3 <= 405
 R172: p2 - p4 <= -1
 R173: - 21 x2,4_21 - p2 + p4 >= 0
 R174: 336 x2,4_21 - p2 + p4 <= 357
 R175: - 38 x2,4_38 - p2 + p4 >= 0
 R176: 336 x2,4_38 - p2 + p4 <= 374
 R177: - 43 x2,4_43 - p2 + p4 >= 0
 R178: 336 x2,4_43 - p2 + p4 <= 379
 R179: - 48 x2,4_48 - p2 + p4 >= 0
 R180: 336 x2,4_48 - p2 + p4 <= 384
 R181: - 58 x2,4_58 - p2 + p4 >= 0
 R182: 336 x2,4_58 - p2 + p4 <= 394
 R183: - 59 x2,4_59 - p2 + p4 >= 0
 R184: 336 x2,4_59 - p2 + p4 <= 395
 R185: - 69 x2,4_69 - p2 + p4 >= 0
 R186: 336 x2,4_69 - p2 + p4 <= 405
 R187: p2 - p5 <= -1
 R188: - 21 x2,5_21 - p2 + p5 >= 0
 R189: 336 x2,5_21 - p2 + p5 <= 357
 R190: - 38 x2,5_38 - p2 + p5 >= 0
 R191: 336 x2,5_38 - p2 + p5 <= 374
 R192: - 43 x2,5_43 - p2 + p5 >= 0
 R193: 336 x2,5_43 - p2 + p5 <= 379
 R194: - 48 x2,5_48 - p2 + p5 >= 0
 R195: 336 x2,5_48 - p2 + p5 <= 384
 R196: - 58 x2,5_58 - p2 + p5 >= 0
 R197: 336 x2,5_58 - p2 + p5 <= 394
 R198: - 59 x2,5_59 - p2 + p5 >= 0
 R199: 336 x2,5_59 - p2 + p5 <= 395
 R200: - 69 x2,5_69 - p2 + p5 >= 0
 R201: 336 x2,5_69 - p2 + p5 <= 405
 R202: p3 - p4 <= -1
 R203: - 21 x3,4_21 - p3 + p4 >= 0
 R204: 336 x3,4_21 - p3 + p4 <= 357
 R205: - 38 x3,4_38 - p3 + p4 >= 0
 R206: 336 x3,4_38 - p3 + p4 <= 374
 R207: - 43 x3,4_43 - p3 + p4 >= 0
 R208: 336 x3,4_43 - p3 + p4 <= 379
 R209: - 48 x3,4_48 - p3 + p4 >= 0
 R210: 336 x3,4_48 - p3 + p4 <= 384
 R211: - 58 x3,4_58 - p3 + p4 >= 0
 R212: 336 x3,4_58 - p3 + p4 <= 394
 R213: - 59 x3,4_59 - p3 + p4 >= 0
 R214: 336 x3,4_59 - p3 + p4 <= 395
 R215: - 69 x3,4_69 - p3 + p4 >= 0
 R216: 336 x3,4_69 - p3 + p4 <= 405
 R217: p3 - p5 <= -1
 R218: - 21 x3,5_21 - p3 + p5 >= 0
 R219: 336 x3,5_21 - p3 + p5 <= 357
 R220: - 38 x3,5_38 - p3 + p5 >= 0
 R221: 336 x3,5_38 - p3 + p5 <= 374
 R222: - 43 x3,5_43 - p3 + p5 >= 0
 R223: 336 x3,5_43 - p3 + p5 <= 379
 R224: - 48 x3,5_48 - p3 + p5 >= 0
 R225: 336 x3,5_48 - p3 + p5 <= 384
 R226: - 58 x3,5_58 - p3 + p5 >= 0
 R227: 336 x3,5_58 - p3 + p5 <= 394
 R228: - 59 x3,5_59 - p3 + p5 >= 0
 R229: 336 x3,5_59 - p3 + p5 <= 395
 R230: - 69 x3,5_69 - p3 + p5 >= 0
 R231: 336 x3,5_69 - p3 + p5 <= 405
 R232: p4 - p5 <= -1
 R233: - 21 x4,5_21 - p4 + p5 >= 0
 R234: 336 x4,5_21 - p4 + p5 <= 357
 R235: - 38 x4,5_38 - p4 + p5 >= 0
 R236: 336 x4,5_38 - p4 + p5 <= 374
 R237: - 43 x4,5_43 - p4 + p5 >= 0
 R238: 336 x4,5_43 - p4 + p5 <= 379
 R239: - 48 x4,5_48 - p4 + p5 >= 0
 R240: 336 x4,5_48 - p4 + p5 <= 384
 R241: - 58 x4,5_58 - p4 + p5 >= 0
 R242: 336 x4,5_58 - p4 + p5 <= 394
 R243: - 59 x4,5_59 - p4 + p5 >= 0
 R244: 336 x4,5_59 - p4 + p5 <= 395
 R245: - 69 x4,5_69 - p4 + p5 >= 0
 R246: 336 x4,5_69 - p4 + p5 <= 405
Bounds
Binaries
 x0,1_21 x0,1_38 x0,1_43 x0,1_48 x0,1_58 x0,1_59 x0,1_69 x0,2_21 x0,2_38
 x0,2_43 x0,2_48 x0,2_58 x0,2_59 x0,2_69 x0,3_21 x0,3_38 x0,3_43 x0,3_48
 x0,3_58 x0,3_59 x0,3_69 x0,4_21 x0,4_38 x0,4_43 x0,4_48 x0,4_58 x0,4_59
 x0,4_69 x0,5_21 x0,5_38 x0,5_43 x0,5_48 x0,5_58 x0,5_59 x0,5_69 x1,2_21
 x1,2_38 x1,2_43 x1,2_48 x1,2_58 x1,2_59 x1,2_69 x1,3_21 x1,3_38 x1,3_43
 x1,3_48 x1,3_58 x1,3_59 x1,3_69 x1,4_21 x1,4_38 x1,4_43 x1,4_48 x1,4_58
 x1,4_59 x1,4_69 x1,5_21 x1,5_38 x1,5_43 x1,5_48 x1,5_58 x1,5_59 x1,5_69
 x2,3_21 x2,3_38 x2,3_43 x2,3_48 x2,3_58 x2,3_59 x2,3_69 x2,4_21 x2,4_38
 x2,4_43 x2,4_48 x2,4_58 x2,4_59 x2,4_69 x2,5_21 x2,5_38 x2,5_43 x2,5_48
 x2,5_58 x2,5_59 x2,5_69 x3,4_21 x3,4_38 x3,4_43 x3,4_48 x3,4_58 x3,4_59
 x3,4_69 x3,5_21 x3,5_38 x3,5_43 x3,5_48 x3,5_58 x3,5_59 x3,5_69 x4,5_21
 x4,5_38 x4,5_43 x4,5_48 x4,5_58 x4,5_59 x4,5_69
Generals
 p0 p1 p2 p3 p4 p5
End
